(set-logic QF_NRA)
(set-info :source |Benchmarks generated from hycomp (https://es-static.fbk.eu/tools/hycomp/). BMC instances of non-linear hybrid automata taken from: Alessandro Cimatti, Sergio Mover, Stefano Tonetta, A quantifier-free SMT encoding of non-linear hybrid automata, FMCAD 2012 and Alessandro Cimatti, Sergio Mover, Stefano Tonetta, Quantier-free encoding of invariants for Hybrid Systems, Formal Methods in System Design. This instance solves a BMC problem of depth 1 and uses the encoding obtained with quantifier elimination using redlog encoding. Contacts: Sergio Mover (mover@fbk.eu), Stefano Tonetta (tonettas@fbk.eu), Alessandro Cimatti (cimatti@fbk.eu).|)
(set-info :smt-lib-version 2.0)
(set-info :category "industrial")
(set-info :status unsat)
;; MathSAT API call trace
;; generated on Mon Mar 19 10:49:49 2012
(declare-fun b.delta__AT0 () Real)
(declare-fun b.counter.1__AT0 () Bool)
(declare-fun b.y__AT1 () Real)
(declare-fun b.EVENT.0__AT0 () Bool)
(declare-fun b.speed_y__AT0 () Real)
(declare-fun b.counter.3__AT0 () Bool)
(declare-fun b.event_is_timed__AT0 () Bool)
(declare-fun b.time__AT1 () Real)
(declare-fun b.x__AT1 () Real)
(declare-fun b.event_is_timed__AT1 () Bool)
(declare-fun b.counter.0__AT1 () Bool)
(declare-fun b.speed_loss__AT0 () Real)
(declare-fun b.counter.1__AT1 () Bool)
(declare-fun b.speed_x__AT0 () Real)
(declare-fun b.speed_x__AT1 () Real)
(declare-fun b.counter.2__AT1 () Bool)
(declare-fun b.time__AT0 () Real)
(declare-fun b.counter.2__AT0 () Bool)
(declare-fun b.counter.3__AT1 () Bool)
(declare-fun b.bool_atom__AT1 () Bool)
(declare-fun b.EVENT.1__AT0 () Bool)
(declare-fun b.x__AT0 () Real)
(declare-fun b.speed_y__AT1 () Real)
(declare-fun b.delta__AT1 () Real)
(declare-fun b.bool_atom__AT0 () Bool)
(declare-fun b.y__AT0 () Real)
(declare-fun b.EVENT.1__AT1 () Bool)
(declare-fun b.EVENT.0__AT1 () Bool)
(declare-fun b.counter.0__AT0 () Bool)
(assert (let ((.def_591 (* 10.0 b.speed_x__AT1)))
(let ((.def_753 (* b.x__AT1 .def_591)))
(let ((.def_592 (* b.speed_x__AT1 .def_591)))
(let ((.def_594 (* .def_592 b.delta__AT1)))
(let ((.def_754 (+ .def_594 .def_753)))
(let ((.def_755 (* (- 49.0) b.delta__AT1)))
(let ((.def_758 (+ .def_755 .def_754)))
(let ((.def_651 (* 5.0 b.speed_y__AT1)))
(let ((.def_759 (+ .def_651 .def_758)))
(let ((.def_883 (<= 0.0 .def_759)))
(let ((.def_884 (not .def_883)))
(let ((.def_607 (* 10.0 b.x__AT1)))
(let ((.def_608 (* b.x__AT1 .def_607)))
(let ((.def_603 (* 49.0 b.delta__AT1)))
(let ((.def_604 (* b.delta__AT1 .def_603)))
(let ((.def_605 (* (- 1.0) .def_604)))
(let ((.def_612 (+ .def_605 .def_608)))
(let ((.def_600 (* 10.0 b.speed_y__AT1)))
(let ((.def_601 (* b.delta__AT1 .def_600)))
(let ((.def_613 (+ .def_601 .def_612)))
(let ((.def_596 (* 20.0 b.speed_x__AT1)))
(let ((.def_597 (* b.delta__AT1 .def_596)))
(let ((.def_598 (* b.x__AT1 .def_597)))
(let ((.def_614 (+ .def_598 .def_613)))
(let ((.def_595 (* b.delta__AT1 .def_594)))
(let ((.def_615 (+ .def_595 .def_614)))
(let ((.def_610 (* 10.0 b.y__AT1)))
(let ((.def_616 (+ .def_610 .def_615)))
(let ((.def_762 (= .def_616 0.0 )))
(let ((.def_763 (not .def_762)))
(let ((.def_885 (or .def_763 .def_884)))
(let ((.def_805 (* 490.0 b.x__AT1)))
(let ((.def_806 (* b.x__AT1 .def_805)))
(let ((.def_801 (* 2401.0 b.delta__AT1)))
(let ((.def_802 (* b.delta__AT1 .def_801)))
(let ((.def_803 (* (- 1.0) .def_802)))
(let ((.def_810 (+ .def_803 .def_806)))
(let ((.def_798 (* 490.0 b.speed_y__AT1)))
(let ((.def_799 (* b.delta__AT1 .def_798)))
(let ((.def_811 (+ .def_799 .def_810)))
(let ((.def_783 (* 980.0 b.speed_x__AT1)))
(let ((.def_795 (* b.delta__AT1 .def_783)))
(let ((.def_796 (* b.x__AT1 .def_795)))
(let ((.def_812 (+ .def_796 .def_811)))
(let ((.def_765 (* 100.0 b.speed_x__AT1)))
(let ((.def_766 (* b.speed_x__AT1 .def_765)))
(let ((.def_792 (* b.y__AT1 .def_766)))
(let ((.def_793 (* (- 1.0) .def_792)))
(let ((.def_813 (+ .def_793 .def_812)))
(let ((.def_788 (* b.x__AT1 .def_766)))
(let ((.def_789 (* b.x__AT1 .def_788)))
(let ((.def_790 (* (- 1.0) .def_789)))
(let ((.def_814 (+ .def_790 .def_813)))
(let ((.def_784 (* b.speed_x__AT1 .def_783)))
(let ((.def_785 (* b.delta__AT1 .def_784)))
(let ((.def_786 (* b.delta__AT1 .def_785)))
(let ((.def_815 (+ .def_786 .def_814)))
(let ((.def_779 (* b.speed_y__AT1 .def_766)))
(let ((.def_780 (* b.delta__AT1 .def_779)))
(let ((.def_781 (* (- 1.0) .def_780)))
(let ((.def_816 (+ .def_781 .def_815)))
(let ((.def_772 (* 200.0 b.speed_x__AT1)))
(let ((.def_773 (* b.speed_x__AT1 .def_772)))
(let ((.def_774 (* b.speed_x__AT1 .def_773)))
(let ((.def_775 (* b.delta__AT1 .def_774)))
(let ((.def_776 (* b.x__AT1 .def_775)))
(let ((.def_777 (* (- 1.0) .def_776)))
(let ((.def_817 (+ .def_777 .def_816)))
(let ((.def_767 (* b.speed_x__AT1 .def_766)))
(let ((.def_768 (* b.speed_x__AT1 .def_767)))
(let ((.def_769 (* b.delta__AT1 .def_768)))
(let ((.def_770 (* b.delta__AT1 .def_769)))
(let ((.def_771 (* (- 1.0) .def_770)))
(let ((.def_818 (+ .def_771 .def_817)))
(let ((.def_808 (* 490.0 b.y__AT1)))
(let ((.def_819 (+ .def_808 .def_818)))
(let ((.def_879 (<= .def_819 0.0 )))
(let ((.def_828 (* 490.0 b.speed_x__AT1)))
(let ((.def_829 (* b.x__AT1 .def_828)))
(let ((.def_822 (* b.x__AT1 .def_767)))
(let ((.def_823 (* (- 1.0) .def_822)))
(let ((.def_835 (+ .def_823 .def_829)))
(let ((.def_836 (+ .def_785 .def_835)))
(let ((.def_821 (* (- 1.0) .def_769)))
(let ((.def_837 (+ .def_821 .def_836)))
(let ((.def_629 (* 50.0 b.speed_x__AT1)))
(let ((.def_630 (* b.speed_x__AT1 .def_629)))
(let ((.def_631 (* b.speed_y__AT1 .def_630)))
(let ((.def_825 (* (- 1.0) .def_631)))
(let ((.def_838 (+ .def_825 .def_837)))
(let ((.def_831 (* (- 2401.0) b.delta__AT1)))
(let ((.def_839 (+ .def_831 .def_838)))
(let ((.def_833 (* 245.0 b.speed_y__AT1)))
(let ((.def_840 (+ .def_833 .def_839)))
(let ((.def_841 (<= 0.0 .def_840)))
(let ((.def_880 (and .def_841 .def_879)))
(let ((.def_750 (<= .def_592 49.0 )))
(let ((.def_751 (not .def_750)))
(let ((.def_881 (or .def_751 .def_880)))
(let ((.def_820 (<= 0.0 .def_819)))
(let ((.def_842 (or .def_820 .def_841)))
(let ((.def_882 (and .def_842 .def_881)))
(let ((.def_886 (and .def_882 .def_885)))
(let ((.def_736 (* 98.0 b.x__AT1)))
(let ((.def_737 (* b.x__AT1 .def_736)))
(let ((.def_732 (* b.speed_y__AT1 .def_596)))
(let ((.def_733 (* b.x__AT1 .def_732)))
(let ((.def_741 (+ .def_733 .def_737)))
(let ((.def_621 (* b.speed_x__AT1 .def_596)))
(let ((.def_730 (* b.y__AT1 .def_621)))
(let ((.def_731 (* (- 1.0) .def_730)))
(let ((.def_742 (+ .def_731 .def_741)))
(let ((.def_652 (* b.speed_y__AT1 .def_651)))
(let ((.def_743 (+ .def_652 .def_742)))
(let ((.def_739 (* 98.0 b.y__AT1)))
(let ((.def_744 (+ .def_739 .def_743)))
(let ((.def_876 (= .def_744 0.0 )))
(let ((.def_877 (and .def_751 .def_876)))
(let ((.def_872 (<= 49.0 .def_592)))
(let ((.def_873 (not .def_872)))
(let ((.def_860 (* 49.0 b.x__AT1)))
(let ((.def_861 (* b.x__AT1 .def_860)))
(let ((.def_857 (* b.y__AT1 .def_592)))
(let ((.def_858 (* (- 1.0) .def_857)))
(let ((.def_865 (+ .def_858 .def_861)))
(let ((.def_854 (* b.x__AT1 .def_592)))
(let ((.def_855 (* b.x__AT1 .def_854)))
(let ((.def_856 (* (- 1.0) .def_855)))
(let ((.def_866 (+ .def_856 .def_865)))
(let ((.def_863 (* 49.0 b.y__AT1)))
(let ((.def_867 (+ .def_863 .def_866)))
(let ((.def_871 (<= 0.0 .def_867)))
(let ((.def_874 (and .def_871 .def_873)))
(let ((.def_868 (<= .def_867 0.0 )))
(let ((.def_644 (* 98.0 b.speed_x__AT1)))
(let ((.def_645 (* b.x__AT1 .def_644)))
(let ((.def_635 (* b.speed_y__AT1 .def_592)))
(let ((.def_846 (* (- 1.0) .def_635)))
(let ((.def_850 (+ .def_846 .def_645)))
(let ((.def_622 (* b.speed_x__AT1 .def_621)))
(let ((.def_623 (* b.x__AT1 .def_622)))
(let ((.def_845 (* (- 1.0) .def_623)))
(let ((.def_851 (+ .def_845 .def_850)))
(let ((.def_655 (* 49.0 b.speed_y__AT1)))
(let ((.def_852 (+ .def_655 .def_851)))
(let ((.def_853 (<= .def_852 0.0 )))
(let ((.def_869 (and .def_853 .def_868)))
(let ((.def_875 (or .def_869 .def_874)))
(let ((.def_878 (or .def_875 .def_877)))
(let ((.def_887 (or .def_878 .def_886)))
(let ((.def_760 (<= .def_759 0.0 )))
(let ((.def_761 (not .def_760)))
(let ((.def_764 (or .def_761 .def_763)))
(let ((.def_843 (and .def_764 .def_842)))
(let ((.def_748 (<= .def_744 0.0 )))
(let ((.def_749 (not .def_748)))
(let ((.def_752 (or .def_749 .def_751)))
(let ((.def_844 (or .def_752 .def_843)))
(let ((.def_870 (or .def_844 .def_869)))
(let ((.def_888 (and .def_870 .def_887)))
(let ((.def_745 (<= 0.0 .def_744)))
(let ((.def_746 (not .def_745)))
(let ((.def_671 (= .def_592 49.0 )))
(let ((.def_747 (or .def_671 .def_746)))
(let ((.def_889 (or .def_747 .def_888)))
(let ((.def_719 (* b.x__AT1 b.x__AT1)))
(let ((.def_717 (* b.speed_y__AT1 b.delta__AT1)))
(let ((.def_722 (+ .def_717 .def_719)))
(let ((.def_674 (* 2.0 b.speed_x__AT1)))
(let ((.def_715 (* b.delta__AT1 .def_674)))
(let ((.def_716 (* b.x__AT1 .def_715)))
(let ((.def_723 (+ .def_716 .def_722)))
(let ((.def_724 (+ b.y__AT1 .def_723)))
(let ((.def_725 (= .def_724 0.0 )))
(let ((.def_726 (not .def_725)))
(let ((.def_473 (* b.speed_y__AT1 b.speed_y__AT1)))
(let ((.def_704 (* .def_473 b.delta__AT1)))
(let ((.def_693 (* 4.0 b.speed_x__AT1)))
(let ((.def_698 (* b.speed_y__AT1 .def_693)))
(let ((.def_699 (* b.delta__AT1 .def_698)))
(let ((.def_700 (* b.x__AT1 .def_699)))
(let ((.def_708 (+ .def_700 .def_704)))
(let ((.def_694 (* b.speed_x__AT1 .def_693)))
(let ((.def_695 (* b.delta__AT1 .def_694)))
(let ((.def_696 (* b.x__AT1 .def_695)))
(let ((.def_697 (* b.x__AT1 .def_696)))
(let ((.def_709 (+ .def_697 .def_708)))
(let ((.def_683 (* b.y__AT1 b.speed_y__AT1)))
(let ((.def_710 (+ .def_683 .def_709)))
(let ((.def_680 (* b.x__AT1 b.speed_y__AT1)))
(let ((.def_681 (* b.x__AT1 .def_680)))
(let ((.def_711 (+ .def_681 .def_710)))
(let ((.def_675 (* b.x__AT1 .def_674)))
(let ((.def_678 (* b.y__AT1 .def_675)))
(let ((.def_712 (+ .def_678 .def_711)))
(let ((.def_676 (* b.x__AT1 .def_675)))
(let ((.def_677 (* b.x__AT1 .def_676)))
(let ((.def_713 (+ .def_677 .def_712)))
(let ((.def_714 (<= .def_713 0.0 )))
(let ((.def_727 (and .def_714 .def_726)))
(let ((.def_690 (+ b.speed_y__AT1 .def_675)))
(let ((.def_691 (= .def_690 0.0 )))
(let ((.def_685 (+ .def_681 .def_683)))
(let ((.def_686 (+ .def_678 .def_685)))
(let ((.def_687 (+ .def_677 .def_686)))
(let ((.def_688 (<= 0.0 .def_687)))
(let ((.def_672 (not .def_671)))
(let ((.def_659 (* b.y__AT1 .def_655)))
(let ((.def_656 (* b.x__AT1 .def_655)))
(let ((.def_657 (* b.x__AT1 .def_656)))
(let ((.def_661 (+ .def_657 .def_659)))
(let ((.def_653 (* b.speed_y__AT1 .def_652)))
(let ((.def_662 (+ .def_653 .def_661)))
(let ((.def_649 (* b.y__AT1 .def_645)))
(let ((.def_663 (+ .def_649 .def_662)))
(let ((.def_646 (* b.x__AT1 .def_645)))
(let ((.def_647 (* b.x__AT1 .def_646)))
(let ((.def_664 (+ .def_647 .def_663)))
(let ((.def_639 (* 30.0 b.speed_x__AT1)))
(let ((.def_640 (* b.speed_y__AT1 .def_639)))
(let ((.def_641 (* b.speed_y__AT1 .def_640)))
(let ((.def_642 (* b.x__AT1 .def_641)))
(let ((.def_665 (+ .def_642 .def_664)))
(let ((.def_636 (* b.y__AT1 .def_635)))
(let ((.def_637 (* (- 1.0) .def_636)))
(let ((.def_666 (+ .def_637 .def_665)))
(let ((.def_632 (* b.x__AT1 .def_631)))
(let ((.def_633 (* b.x__AT1 .def_632)))
(let ((.def_667 (+ .def_633 .def_666)))
(let ((.def_626 (* b.y__AT1 .def_623)))
(let ((.def_627 (* (- 1.0) .def_626)))
(let ((.def_668 (+ .def_627 .def_667)))
(let ((.def_624 (* b.x__AT1 .def_623)))
(let ((.def_625 (* b.x__AT1 .def_624)))
(let ((.def_669 (+ .def_625 .def_668)))
(let ((.def_670 (<= .def_669 0.0 )))
(let ((.def_673 (or .def_670 .def_672)))
(let ((.def_689 (or .def_673 .def_688)))
(let ((.def_692 (or .def_689 .def_691)))
(let ((.def_728 (or .def_692 .def_727)))
(let ((.def_618 (<= 0.0 b.delta__AT1)))
(let ((.def_619 (not .def_618)))
(let ((.def_617 (<= 0.0 .def_616)))
(let ((.def_620 (or .def_617 .def_619)))
(let ((.def_729 (and .def_620 .def_728)))
(let ((.def_890 (and .def_729 .def_889)))
(let ((.def_576 (not b.EVENT.0__AT1)))
(let ((.def_574 (not b.EVENT.1__AT1)))
(let ((.def_589 (and .def_574 .def_576)))
(let ((.def_590 (not .def_589)))
(let ((.def_891 (or .def_590 .def_890)))
(let ((.def_39 (not b.counter.0__AT0)))
(let ((.def_37 (not b.counter.1__AT0)))
(let ((.def_40 (and .def_37 .def_39)))
(let ((.def_585 (or .def_40 b.counter.3__AT0)))
(let ((.def_45 (not b.counter.3__AT0)))
(let ((.def_42 (not b.counter.2__AT0)))
(let ((.def_43 (and .def_40 .def_42)))
(let ((.def_584 (or .def_43 .def_45)))
(let ((.def_586 (and .def_584 .def_585)))
(let ((.def_548 (* (- 1.0) b.x__AT1)))
(let ((.def_579 (* b.x__AT1 .def_548)))
(let ((.def_580 (<= .def_579 b.y__AT1)))
(let ((.def_70 (<= b.speed_loss__AT0 (/ 1 2))))
(let ((.def_67 (<= (/ 1 10) b.speed_loss__AT0)))
(let ((.def_71 (and .def_67 .def_70)))
(let ((.def_581 (and .def_71 .def_580)))
(let ((.def_577 (or .def_574 .def_576)))
(let ((.def_6 (not b.counter.0__AT1)))
(let ((.def_4 (not b.counter.1__AT1)))
(let ((.def_567 (or .def_4 .def_6)))
(let ((.def_571 (or b.counter.3__AT1 .def_567)))
(let ((.def_568 (or b.counter.2__AT1 .def_567)))
(let ((.def_9 (not b.counter.2__AT1)))
(let ((.def_566 (or .def_6 .def_9)))
(let ((.def_569 (and .def_566 .def_568)))
(let ((.def_12 (not b.counter.3__AT1)))
(let ((.def_570 (or .def_12 .def_569)))
(let ((.def_572 (and .def_570 .def_571)))
(let ((.def_578 (and .def_572 .def_577)))
(let ((.def_582 (and .def_578 .def_581)))
(let ((.def_107 (<= 0.0 b.delta__AT0)))
(let ((.def_58 (not b.EVENT.0__AT0)))
(let ((.def_56 (not b.EVENT.1__AT0)))
(let ((.def_76 (and .def_56 .def_58)))
(let ((.def_77 (not .def_76)))
(let ((.def_562 (or .def_77 .def_107)))
(let ((.def_563 (or b.EVENT.1__AT0 .def_562)))
(let ((.def_435 (= b.bool_atom__AT0 b.bool_atom__AT1)))
(let ((.def_430 (= b.counter.0__AT1 b.counter.0__AT0)))
(let ((.def_428 (= b.counter.1__AT1 b.counter.1__AT0)))
(let ((.def_426 (= b.counter.2__AT1 b.counter.2__AT0)))
(let ((.def_425 (= b.counter.3__AT1 b.counter.3__AT0)))
(let ((.def_427 (and .def_425 .def_426)))
(let ((.def_429 (and .def_427 .def_428)))
(let ((.def_431 (and .def_429 .def_430)))
(let ((.def_558 (and .def_431 .def_435)))
(let ((.def_559 (or .def_77 .def_558)))
(let ((.def_560 (or b.EVENT.1__AT0 .def_559)))
(let ((.def_547 (* b.speed_x__AT0 b.delta__AT0)))
(let ((.def_551 (+ .def_548 .def_547)))
(let ((.def_552 (+ b.x__AT0 .def_551)))
(let ((.def_553 (= .def_552 0.0 )))
(let ((.def_533 (* b.delta__AT0 b.delta__AT0)))
(let ((.def_534 (* (- 49.0) .def_533)))
(let ((.def_538 (* (- 10.0) b.y__AT1)))
(let ((.def_541 (+ .def_538 .def_534)))
(let ((.def_212 (* b.speed_y__AT0 b.delta__AT0)))
(let ((.def_535 (* 10.0 .def_212)))
(let ((.def_542 (+ .def_535 .def_541)))
(let ((.def_99 (* 10.0 b.y__AT0)))
(let ((.def_543 (+ .def_99 .def_542)))
(let ((.def_544 (= .def_543 0.0 )))
(let ((.def_529 (* (- 5.0) b.speed_y__AT1)))
(let ((.def_251 (* (- 49.0) b.delta__AT0)))
(let ((.def_530 (+ .def_251 .def_529)))
(let ((.def_144 (* 5.0 b.speed_y__AT0)))
(let ((.def_531 (+ .def_144 .def_530)))
(let ((.def_532 (= .def_531 0.0 )))
(let ((.def_545 (and .def_532 .def_544)))
(let ((.def_420 (= b.speed_x__AT0 b.speed_x__AT1)))
(let ((.def_546 (and .def_420 .def_545)))
(let ((.def_554 (and .def_546 .def_553)))
(let ((.def_555 (or .def_77 .def_554)))
(let ((.def_417 (= b.y__AT0 b.y__AT1)))
(let ((.def_414 (= b.x__AT0 b.x__AT1)))
(let ((.def_522 (and .def_414 .def_417)))
(let ((.def_523 (and .def_420 .def_522)))
(let ((.def_423 (= b.speed_y__AT0 b.speed_y__AT1)))
(let ((.def_524 (and .def_423 .def_523)))
(let ((.def_519 (= b.delta__AT0 0.0 )))
(let ((.def_520 (and .def_76 .def_519)))
(let ((.def_521 (not .def_520)))
(let ((.def_525 (or .def_521 .def_524)))
(let ((.def_526 (or b.EVENT.1__AT0 .def_525)))
(let ((.def_511 (and .def_420 .def_423)))
(let ((.def_512 (and .def_431 .def_511)))
(let ((.def_513 (or b.bool_atom__AT0 .def_512)))
(let ((.def_487 (or .def_6 b.counter.0__AT0)))
(let ((.def_486 (or b.counter.0__AT1 .def_39)))
(let ((.def_488 (and .def_486 .def_487)))
(let ((.def_489 (and .def_4 .def_488)))
(let ((.def_490 (or b.counter.1__AT0 .def_489)))
(let ((.def_485 (or b.counter.1__AT1 .def_37)))
(let ((.def_491 (and .def_485 .def_490)))
(let ((.def_502 (and .def_9 .def_491)))
(let ((.def_503 (or b.counter.2__AT0 .def_502)))
(let ((.def_497 (and .def_4 .def_39)))
(let ((.def_498 (or b.counter.1__AT0 .def_497)))
(let ((.def_499 (and .def_485 .def_498)))
(let ((.def_500 (and b.counter.2__AT1 .def_499)))
(let ((.def_501 (or .def_42 .def_500)))
(let ((.def_504 (and .def_501 .def_503)))
(let ((.def_505 (and b.counter.3__AT1 .def_504)))
(let ((.def_506 (or b.counter.3__AT0 .def_505)))
(let ((.def_492 (and b.counter.2__AT1 .def_491)))
(let ((.def_493 (or b.counter.2__AT0 .def_492)))
(let ((.def_481 (or b.counter.1__AT1 b.counter.1__AT0)))
(let ((.def_479 (and .def_4 b.counter.0__AT1)))
(let ((.def_480 (or .def_37 .def_479)))
(let ((.def_482 (and .def_480 .def_481)))
(let ((.def_483 (and .def_9 .def_482)))
(let ((.def_484 (or .def_42 .def_483)))
(let ((.def_494 (and .def_484 .def_493)))
(let ((.def_495 (and .def_12 .def_494)))
(let ((.def_496 (or .def_45 .def_495)))
(let ((.def_507 (and .def_496 .def_506)))
(let ((.def_468 (* b.speed_x__AT0 b.speed_x__AT0)))
(let ((.def_198 (* b.speed_y__AT0 b.speed_y__AT0)))
(let ((.def_469 (+ .def_198 .def_468)))
(let ((.def_454 (* (- 1.0) b.speed_loss__AT0)))
(let ((.def_455 (+ 1.0 .def_454)))
(let ((.def_467 (* .def_455 .def_455)))
(let ((.def_470 (* .def_467 .def_469)))
(let ((.def_471 (* (- 1.0) .def_470)))
(let ((.def_475 (+ .def_471 .def_473)))
(let ((.def_466 (* b.speed_x__AT1 b.speed_x__AT1)))
(let ((.def_476 (+ .def_466 .def_475)))
(let ((.def_477 (= .def_476 0.0 )))
(let ((.def_459 (* b.speed_y__AT0 .def_455)))
(let ((.def_442 (* (- 2.0) b.x__AT0)))
(let ((.def_443 (* (- 1.0) .def_442)))
(let ((.def_456 (* .def_443 .def_455)))
(let ((.def_457 (* b.speed_x__AT0 .def_456)))
(let ((.def_462 (+ .def_457 .def_459)))
(let ((.def_451 (* (- 2.0) b.x__AT1)))
(let ((.def_452 (* (- 1.0) .def_451)))
(let ((.def_453 (* b.speed_x__AT1 .def_452)))
(let ((.def_463 (+ .def_453 .def_462)))
(let ((.def_464 (+ b.speed_y__AT1 .def_463)))
(let ((.def_465 (= .def_464 0.0 )))
(let ((.def_478 (and .def_465 .def_477)))
(let ((.def_508 (and .def_478 .def_507)))
(let ((.def_450 (not b.bool_atom__AT0)))
(let ((.def_509 (or .def_450 .def_508)))
(let ((.def_444 (* b.speed_x__AT0 .def_443)))
(let ((.def_445 (+ b.speed_y__AT0 .def_444)))
(let ((.def_446 (<= 0.0 .def_445)))
(let ((.def_447 (not .def_446)))
(let ((.def_62 (* (- 1.0) b.x__AT0)))
(let ((.def_63 (* b.x__AT0 .def_62)))
(let ((.def_440 (= b.y__AT0 .def_63)))
(let ((.def_448 (and .def_440 .def_447)))
(let ((.def_449 (= b.bool_atom__AT0 .def_448)))
(let ((.def_510 (and .def_449 .def_509)))
(let ((.def_514 (and .def_510 .def_513)))
(let ((.def_515 (and .def_414 .def_514)))
(let ((.def_516 (and .def_417 .def_515)))
(let ((.def_517 (or .def_76 .def_516)))
(let ((.def_518 (or b.EVENT.1__AT0 .def_517)))
(let ((.def_527 (and .def_518 .def_526)))
(let ((.def_556 (and .def_527 .def_555)))
(let ((.def_401 (= b.time__AT0 b.time__AT1)))
(let ((.def_415 (and .def_401 .def_414)))
(let ((.def_418 (and .def_415 .def_417)))
(let ((.def_421 (and .def_418 .def_420)))
(let ((.def_424 (and .def_421 .def_423)))
(let ((.def_432 (and .def_424 .def_431)))
(let ((.def_436 (and .def_432 .def_435)))
(let ((.def_437 (or .def_56 .def_436)))
(let ((.def_404 (* (- 1.0) b.time__AT1)))
(let ((.def_407 (+ b.delta__AT0 .def_404)))
(let ((.def_408 (+ b.time__AT0 .def_407)))
(let ((.def_409 (= .def_408 0.0 )))
(let ((.def_410 (or .def_77 .def_409)))
(let ((.def_411 (or b.EVENT.1__AT0 .def_410)))
(let ((.def_402 (or .def_76 .def_401)))
(let ((.def_403 (or b.EVENT.1__AT0 .def_402)))
(let ((.def_412 (and .def_403 .def_411)))
(let ((.def_438 (and .def_412 .def_437)))
(let ((.def_398 (= .def_77 b.event_is_timed__AT1)))
(let ((.def_396 (= b.event_is_timed__AT0 .def_76)))
(let ((.def_399 (and .def_396 .def_398)))
(let ((.def_439 (and .def_399 .def_438)))
(let ((.def_557 (and .def_439 .def_556)))
(let ((.def_561 (and .def_557 .def_560)))
(let ((.def_564 (and .def_561 .def_563)))
(let ((.def_565 (and .def_56 .def_564)))
(let ((.def_583 (and .def_565 .def_582)))
(let ((.def_587 (and .def_583 .def_586)))
(let ((.def_78 (* 10.0 b.speed_x__AT0)))
(let ((.def_248 (* b.x__AT0 .def_78)))
(let ((.def_79 (* b.speed_x__AT0 .def_78)))
(let ((.def_81 (* .def_79 b.delta__AT0)))
(let ((.def_249 (+ .def_81 .def_248)))
(let ((.def_254 (+ .def_251 .def_249)))
(let ((.def_255 (+ .def_144 .def_254)))
(let ((.def_386 (<= 0.0 .def_255)))
(let ((.def_387 (not .def_386)))
(let ((.def_96 (* 10.0 b.x__AT0)))
(let ((.def_97 (* b.x__AT0 .def_96)))
(let ((.def_92 (* 49.0 b.delta__AT0)))
(let ((.def_93 (* b.delta__AT0 .def_92)))
(let ((.def_94 (* (- 1.0) .def_93)))
(let ((.def_101 (+ .def_94 .def_97)))
(let ((.def_88 (* 10.0 b.speed_y__AT0)))
(let ((.def_89 (* b.delta__AT0 .def_88)))
(let ((.def_102 (+ .def_89 .def_101)))
(let ((.def_84 (* 20.0 b.speed_x__AT0)))
(let ((.def_85 (* b.delta__AT0 .def_84)))
(let ((.def_86 (* b.x__AT0 .def_85)))
(let ((.def_103 (+ .def_86 .def_102)))
(let ((.def_82 (* b.delta__AT0 .def_81)))
(let ((.def_104 (+ .def_82 .def_103)))
(let ((.def_105 (+ .def_99 .def_104)))
(let ((.def_258 (= .def_105 0.0 )))
(let ((.def_259 (not .def_258)))
(let ((.def_388 (or .def_259 .def_387)))
(let ((.def_306 (* 490.0 b.x__AT0)))
(let ((.def_307 (* b.x__AT0 .def_306)))
(let ((.def_302 (* 2401.0 b.delta__AT0)))
(let ((.def_303 (* b.delta__AT0 .def_302)))
(let ((.def_304 (* (- 1.0) .def_303)))
(let ((.def_311 (+ .def_304 .def_307)))
(let ((.def_298 (* 490.0 b.speed_y__AT0)))
(let ((.def_299 (* b.delta__AT0 .def_298)))
(let ((.def_312 (+ .def_299 .def_311)))
(let ((.def_282 (* 980.0 b.speed_x__AT0)))
(let ((.def_294 (* b.delta__AT0 .def_282)))
(let ((.def_295 (* b.x__AT0 .def_294)))
(let ((.def_313 (+ .def_295 .def_312)))
(let ((.def_262 (* 100.0 b.speed_x__AT0)))
(let ((.def_263 (* b.speed_x__AT0 .def_262)))
(let ((.def_291 (* b.y__AT0 .def_263)))
(let ((.def_292 (* (- 1.0) .def_291)))
(let ((.def_314 (+ .def_292 .def_313)))
(let ((.def_287 (* b.x__AT0 .def_263)))
(let ((.def_288 (* b.x__AT0 .def_287)))
(let ((.def_289 (* (- 1.0) .def_288)))
(let ((.def_315 (+ .def_289 .def_314)))
(let ((.def_283 (* b.speed_x__AT0 .def_282)))
(let ((.def_284 (* b.delta__AT0 .def_283)))
(let ((.def_285 (* b.delta__AT0 .def_284)))
(let ((.def_316 (+ .def_285 .def_315)))
(let ((.def_277 (* b.speed_y__AT0 .def_263)))
(let ((.def_278 (* b.delta__AT0 .def_277)))
(let ((.def_279 (* (- 1.0) .def_278)))
(let ((.def_317 (+ .def_279 .def_316)))
(let ((.def_270 (* 200.0 b.speed_x__AT0)))
(let ((.def_271 (* b.speed_x__AT0 .def_270)))
(let ((.def_272 (* b.speed_x__AT0 .def_271)))
(let ((.def_273 (* b.delta__AT0 .def_272)))
(let ((.def_274 (* b.x__AT0 .def_273)))
(let ((.def_275 (* (- 1.0) .def_274)))
(let ((.def_318 (+ .def_275 .def_317)))
(let ((.def_264 (* b.speed_x__AT0 .def_263)))
(let ((.def_265 (* b.speed_x__AT0 .def_264)))
(let ((.def_266 (* b.delta__AT0 .def_265)))
(let ((.def_267 (* b.delta__AT0 .def_266)))
(let ((.def_268 (* (- 1.0) .def_267)))
(let ((.def_319 (+ .def_268 .def_318)))
(let ((.def_309 (* 490.0 b.y__AT0)))
(let ((.def_320 (+ .def_309 .def_319)))
(let ((.def_382 (<= .def_320 0.0 )))
(let ((.def_329 (* 490.0 b.speed_x__AT0)))
(let ((.def_330 (* b.x__AT0 .def_329)))
(let ((.def_323 (* b.x__AT0 .def_264)))
(let ((.def_324 (* (- 1.0) .def_323)))
(let ((.def_338 (+ .def_324 .def_330)))
(let ((.def_339 (+ .def_284 .def_338)))
(let ((.def_322 (* (- 1.0) .def_266)))
(let ((.def_340 (+ .def_322 .def_339)))
(let ((.def_119 (* 50.0 b.speed_x__AT0)))
(let ((.def_120 (* b.speed_x__AT0 .def_119)))
(let ((.def_121 (* b.speed_y__AT0 .def_120)))
(let ((.def_326 (* (- 1.0) .def_121)))
(let ((.def_341 (+ .def_326 .def_340)))
(let ((.def_333 (* (- 2401.0) b.delta__AT0)))
(let ((.def_342 (+ .def_333 .def_341)))
(let ((.def_336 (* 245.0 b.speed_y__AT0)))
(let ((.def_343 (+ .def_336 .def_342)))
(let ((.def_344 (<= 0.0 .def_343)))
(let ((.def_383 (and .def_344 .def_382)))
(let ((.def_245 (<= .def_79 49.0 )))
(let ((.def_246 (not .def_245)))
(let ((.def_384 (or .def_246 .def_383)))
(let ((.def_321 (<= 0.0 .def_320)))
(let ((.def_345 (or .def_321 .def_344)))
(let ((.def_385 (and .def_345 .def_384)))
(let ((.def_389 (and .def_385 .def_388)))
(let ((.def_231 (* 98.0 b.x__AT0)))
(let ((.def_232 (* b.x__AT0 .def_231)))
(let ((.def_227 (* b.speed_y__AT0 .def_84)))
(let ((.def_228 (* b.x__AT0 .def_227)))
(let ((.def_236 (+ .def_228 .def_232)))
(let ((.def_110 (* b.speed_x__AT0 .def_84)))
(let ((.def_225 (* b.y__AT0 .def_110)))
(let ((.def_226 (* (- 1.0) .def_225)))
(let ((.def_237 (+ .def_226 .def_236)))
(let ((.def_145 (* b.speed_y__AT0 .def_144)))
(let ((.def_238 (+ .def_145 .def_237)))
(let ((.def_234 (* 98.0 b.y__AT0)))
(let ((.def_239 (+ .def_234 .def_238)))
(let ((.def_379 (= .def_239 0.0 )))
(let ((.def_380 (and .def_246 .def_379)))
(let ((.def_375 (<= 49.0 .def_79)))
(let ((.def_376 (not .def_375)))
(let ((.def_363 (* 49.0 b.x__AT0)))
(let ((.def_364 (* b.x__AT0 .def_363)))
(let ((.def_360 (* b.y__AT0 .def_79)))
(let ((.def_361 (* (- 1.0) .def_360)))
(let ((.def_368 (+ .def_361 .def_364)))
(let ((.def_357 (* b.x__AT0 .def_79)))
(let ((.def_358 (* b.x__AT0 .def_357)))
(let ((.def_359 (* (- 1.0) .def_358)))
(let ((.def_369 (+ .def_359 .def_368)))
(let ((.def_366 (* 49.0 b.y__AT0)))
(let ((.def_370 (+ .def_366 .def_369)))
(let ((.def_374 (<= 0.0 .def_370)))
(let ((.def_377 (and .def_374 .def_376)))
(let ((.def_371 (<= .def_370 0.0 )))
(let ((.def_136 (* 98.0 b.speed_x__AT0)))
(let ((.def_137 (* b.x__AT0 .def_136)))
(let ((.def_125 (* b.speed_y__AT0 .def_79)))
(let ((.def_349 (* (- 1.0) .def_125)))
(let ((.def_353 (+ .def_349 .def_137)))
(let ((.def_111 (* b.speed_x__AT0 .def_110)))
(let ((.def_112 (* b.x__AT0 .def_111)))
(let ((.def_348 (* (- 1.0) .def_112)))
(let ((.def_354 (+ .def_348 .def_353)))
(let ((.def_148 (* 49.0 b.speed_y__AT0)))
(let ((.def_355 (+ .def_148 .def_354)))
(let ((.def_356 (<= .def_355 0.0 )))
(let ((.def_372 (and .def_356 .def_371)))
(let ((.def_378 (or .def_372 .def_377)))
(let ((.def_381 (or .def_378 .def_380)))
(let ((.def_390 (or .def_381 .def_389)))
(let ((.def_256 (<= .def_255 0.0 )))
(let ((.def_257 (not .def_256)))
(let ((.def_260 (or .def_257 .def_259)))
(let ((.def_346 (and .def_260 .def_345)))
(let ((.def_243 (<= .def_239 0.0 )))
(let ((.def_244 (not .def_243)))
(let ((.def_247 (or .def_244 .def_246)))
(let ((.def_347 (or .def_247 .def_346)))
(let ((.def_373 (or .def_347 .def_372)))
(let ((.def_391 (and .def_373 .def_390)))
(let ((.def_240 (<= 0.0 .def_239)))
(let ((.def_241 (not .def_240)))
(let ((.def_164 (= .def_79 49.0 )))
(let ((.def_242 (or .def_164 .def_241)))
(let ((.def_392 (or .def_242 .def_391)))
(let ((.def_214 (* b.x__AT0 b.x__AT0)))
(let ((.def_217 (+ .def_212 .def_214)))
(let ((.def_167 (* 2.0 b.speed_x__AT0)))
(let ((.def_210 (* b.delta__AT0 .def_167)))
(let ((.def_211 (* b.x__AT0 .def_210)))
(let ((.def_218 (+ .def_211 .def_217)))
(let ((.def_219 (+ b.y__AT0 .def_218)))
(let ((.def_220 (= .def_219 0.0 )))
(let ((.def_221 (not .def_220)))
(let ((.def_199 (* b.delta__AT0 .def_198)))
(let ((.def_187 (* 4.0 b.speed_x__AT0)))
(let ((.def_192 (* b.speed_y__AT0 .def_187)))
(let ((.def_193 (* b.delta__AT0 .def_192)))
(let ((.def_194 (* b.x__AT0 .def_193)))
(let ((.def_203 (+ .def_194 .def_199)))
(let ((.def_188 (* b.speed_x__AT0 .def_187)))
(let ((.def_189 (* b.delta__AT0 .def_188)))
(let ((.def_190 (* b.x__AT0 .def_189)))
(let ((.def_191 (* b.x__AT0 .def_190)))
(let ((.def_204 (+ .def_191 .def_203)))
(let ((.def_176 (* b.y__AT0 b.speed_y__AT0)))
(let ((.def_205 (+ .def_176 .def_204)))
(let ((.def_173 (* b.x__AT0 b.speed_y__AT0)))
(let ((.def_174 (* b.x__AT0 .def_173)))
(let ((.def_206 (+ .def_174 .def_205)))
(let ((.def_168 (* b.x__AT0 .def_167)))
(let ((.def_171 (* b.y__AT0 .def_168)))
(let ((.def_207 (+ .def_171 .def_206)))
(let ((.def_169 (* b.x__AT0 .def_168)))
(let ((.def_170 (* b.x__AT0 .def_169)))
(let ((.def_208 (+ .def_170 .def_207)))
(let ((.def_209 (<= .def_208 0.0 )))
(let ((.def_222 (and .def_209 .def_221)))
(let ((.def_183 (+ b.speed_y__AT0 .def_168)))
(let ((.def_184 (= .def_183 0.0 )))
(let ((.def_178 (+ .def_174 .def_176)))
(let ((.def_179 (+ .def_171 .def_178)))
(let ((.def_180 (+ .def_170 .def_179)))
(let ((.def_181 (<= 0.0 .def_180)))
(let ((.def_165 (not .def_164)))
(let ((.def_152 (* b.y__AT0 .def_148)))
(let ((.def_149 (* b.x__AT0 .def_148)))
(let ((.def_150 (* b.x__AT0 .def_149)))
(let ((.def_154 (+ .def_150 .def_152)))
(let ((.def_146 (* b.speed_y__AT0 .def_145)))
(let ((.def_155 (+ .def_146 .def_154)))
(let ((.def_141 (* b.y__AT0 .def_137)))
(let ((.def_156 (+ .def_141 .def_155)))
(let ((.def_138 (* b.x__AT0 .def_137)))
(let ((.def_139 (* b.x__AT0 .def_138)))
(let ((.def_157 (+ .def_139 .def_156)))
(let ((.def_130 (* 30.0 b.speed_x__AT0)))
(let ((.def_131 (* b.speed_y__AT0 .def_130)))
(let ((.def_132 (* b.speed_y__AT0 .def_131)))
(let ((.def_133 (* b.x__AT0 .def_132)))
(let ((.def_158 (+ .def_133 .def_157)))
(let ((.def_126 (* b.y__AT0 .def_125)))
(let ((.def_127 (* (- 1.0) .def_126)))
(let ((.def_159 (+ .def_127 .def_158)))
(let ((.def_122 (* b.x__AT0 .def_121)))
(let ((.def_123 (* b.x__AT0 .def_122)))
(let ((.def_160 (+ .def_123 .def_159)))
(let ((.def_115 (* b.y__AT0 .def_112)))
(let ((.def_116 (* (- 1.0) .def_115)))
(let ((.def_161 (+ .def_116 .def_160)))
(let ((.def_113 (* b.x__AT0 .def_112)))
(let ((.def_114 (* b.x__AT0 .def_113)))
(let ((.def_162 (+ .def_114 .def_161)))
(let ((.def_163 (<= .def_162 0.0 )))
(let ((.def_166 (or .def_163 .def_165)))
(let ((.def_182 (or .def_166 .def_181)))
(let ((.def_185 (or .def_182 .def_184)))
(let ((.def_223 (or .def_185 .def_222)))
(let ((.def_108 (not .def_107)))
(let ((.def_106 (<= 0.0 .def_105)))
(let ((.def_109 (or .def_106 .def_108)))
(let ((.def_224 (and .def_109 .def_223)))
(let ((.def_393 (and .def_224 .def_392)))
(let ((.def_394 (or .def_77 .def_393)))
(let ((.def_64 (<= .def_63 b.y__AT0)))
(let ((.def_72 (and .def_64 .def_71)))
(let ((.def_59 (or .def_56 .def_58)))
(let ((.def_49 (or .def_37 .def_39)))
(let ((.def_53 (or b.counter.3__AT0 .def_49)))
(let ((.def_50 (or b.counter.2__AT0 .def_49)))
(let ((.def_48 (or .def_39 .def_42)))
(let ((.def_51 (and .def_48 .def_50)))
(let ((.def_52 (or .def_45 .def_51)))
(let ((.def_54 (and .def_52 .def_53)))
(let ((.def_60 (and .def_54 .def_59)))
(let ((.def_73 (and .def_60 .def_72)))
(let ((.def_46 (and .def_43 .def_45)))
(let ((.def_34 (= b.speed_y__AT0 1.0 )))
(let ((.def_31 (= b.speed_x__AT0 1.0 )))
(let ((.def_27 (= b.y__AT0 10.0 )))
(let ((.def_23 (= b.x__AT0 0.0 )))
(let ((.def_19 (= b.time__AT0 0.0 )))
(let ((.def_21 (and .def_19 b.event_is_timed__AT0)))
(let ((.def_24 (and .def_21 .def_23)))
(let ((.def_28 (and .def_24 .def_27)))
(let ((.def_32 (and .def_28 .def_31)))
(let ((.def_35 (and .def_32 .def_34)))
(let ((.def_47 (and .def_35 .def_46)))
(let ((.def_74 (and .def_47 .def_73)))
(let ((.def_7 (and .def_4 .def_6)))
(let ((.def_14 (or .def_7 b.counter.3__AT1)))
(let ((.def_10 (and .def_7 .def_9)))
(let ((.def_13 (or .def_10 .def_12)))
(let ((.def_15 (and .def_13 .def_14)))
(let ((.def_16 (not .def_15)))
(let ((.def_75 (and .def_16 .def_74)))
(let ((.def_395 (and .def_75 .def_394)))
(let ((.def_588 (and .def_395 .def_587)))
(let ((.def_892 (and .def_588 .def_891)))
.def_892)))))))))))))))))))))))))))))))))))))))))))))))))))))))))))))))))))))))))))))))))))))))))))))))))))))))))))))))))))))))))))))))))))))))))))))))))))))))))))))))))))))))))))))))))))))))))))))))))))))))))))))))))))))))))))))))))))))))))))))))))))))))))))))))))))))))))))))))))))))))))))))))))))))))))))))))))))))))))))))))))))))))))))))))))))))))))))))))))))))))))))))))))))))))))))))))))))))))))))))))))))))))))))))))))))))))))))))))))))))))))))))))))))))))))))))))))))))))))))))))))))))))))))))))))))))))))))))))))))))))))))))))))))))))))))))))))))))))))))))))))))))))))))))))))))))))))))))))))))))))))))))))))))))))))))))))))))))))))))))))))))))))))))))))))))))))))))))))))))))))))))))))))))))))))))))))))))))))))))))
(check-sat)
(exit)
